outputs/case_80.model.txt
reservation_opposition_recorded = False
risk_management_system_established = True
internal_control_reported_to_supervisors_or_audit_committee = False
compliance_system_established = True
internal_audit_system_established = True
audit_committee_approval_reported_to_board = False
audit_committee_approval_ratio = 0
self_audit_system_established = True
audit_committee_exists = False
board_member_has_reservation_or_opposition = False
major_violation = False
internal_control_three_lines = True
internal_audit_system_executed = True
internal_control_approved = True
disclosure_compliance = True
internal_control_reported = False
internal_control_approved_by_board = True
advertising_no_guarantee_of_principal_or_profit = True
violation_is_major = False
advertising_no_false_reports = True
internal_control_executed = True
self_audit_system_executed = True
business_management_rule_complied = True
article_165_1_complied = True
assist_formal_condition_violation = False
advertising_content_truthful = True
audit_system_executed = True
internal_control_compliance = True
advertising_compliance = True
internal_control_established = True
violate_advertising_regulations = False
audit_system_established = True
compliance_system_executed = True
advertising_no_misleading = True
violate_disclosure_regulations = False
advertising_no_misleading_government_approval = True
solicitation_handling_system_executed = True
solicitation_handling_system_established = True
advertising_no_exaggeration = True
article_163_5_complied = True
advertising_no_promotion_of_unapproved_products = True
violate_consumer_info_regulations = False
financial_management_rule_complied = True
remuneration_compliance = True
advertising_no_trademark_misuse = True
formal_condition_compliance = True
advertising_ethics_compliance = True
remuneration_system_established = True
advertising_no_reputation_damage = True
consumer_info_compliance = True
penalty = False
remuneration_system_executed = True
risk_management_system_executed = True
management_rule_compliance = True
internal_control_measures_executed = True
internal_control_opinion_recorded = True
advertising_clear_disclaimer = True